Minimize
  19 PC_20 + 7 PC_19 + 7 PC_18 + 3 PC_17 + 19 PC_16 + 6 PC_15 + 17 PC_14
   + 13 PC_13 + 4 PC_12 + 3 PC_11 + 2 PC_10 + PC_9 + 9 PC_8 + 8 PC_7
   + 8 PC_6 + 13 PC_5 + 11 PC_4 + 2 PC_3 + 2 PC_2 + 13 PC_1
Subject To
 R0: PC_18 + PC_10 >= 1
 R1: PC_17 + PC_10 >= 1
 R2: PC_14 + PC_10 >= 1
 R3: PC_13 + PC_10 >= 1
 R4: PC_11 + PC_10 >= 1
 R5: PC_15 + PC_9 >= 1
 R6: PC_12 + PC_9 >= 1
 R7: PC_11 + PC_9 >= 1
 R8: PC_20 + PC_8 >= 1
 R9: PC_17 + PC_8 >= 1
 R10: PC_15 + PC_8 >= 1
 R11: PC_13 + PC_8 >= 1
 R12: PC_12 + PC_8 >= 1
 R13: PC_11 + PC_8 >= 1
 R14: PC_18 + PC_7 >= 1
 R15: PC_11 + PC_7 >= 1
 R16: PC_20 + PC_6 >= 1
 R17: PC_13 + PC_6 >= 1
 R18: PC_11 + PC_6 >= 1
 R19: PC_19 + PC_5 >= 1
 R20: PC_12 + PC_5 >= 1
 R21: PC_11 + PC_5 >= 1
 R22: PC_17 + PC_4 >= 1
 R23: PC_16 + PC_4 >= 1
 R24: PC_11 + PC_4 >= 1
 R25: PC_17 + PC_3 >= 1
 R26: PC_16 + PC_3 >= 1
 R27: PC_19 + PC_2 >= 1
 R28: PC_18 + PC_2 >= 1
 R29: PC_14 + PC_2 >= 1
 R30: PC_11 + PC_2 >= 1
 R31: PC_18 + PC_1 >= 1
 R32: PC_16 + PC_1 >= 1
 R33: PC_15 + PC_1 >= 1
 R34: PC_11 + PC_1 >= 1
Bounds
 PC_20 <= 1
 PC_19 <= 1
 PC_18 <= 1
 PC_17 <= 1
 PC_16 <= 1
 PC_15 <= 1
 PC_14 <= 1
 PC_13 <= 1
 PC_12 <= 1
 PC_11 <= 1
 PC_10 <= 1
 PC_9 <= 1
 PC_8 <= 1
 PC_7 <= 1
 PC_6 <= 1
 PC_5 <= 1
 PC_4 <= 1
 PC_3 <= 1
 PC_2 <= 1
 PC_1 <= 1
End
